(set-option :print-success false)
(set-logic QF_UF)
(declare-sort x85 0)
(declare-sort x46 0)
(declare-fun x58 (x46 x46) x46)
(declare-fun x102 () x46)
(declare-fun x133 () x46)
(declare-fun x25 (x46 x46) x46)
(declare-fun x36 () x46)
(declare-fun x141 () x46)
(declare-fun x99 () x46)
(assert (let ((x10 (x25 x133 x36)) (x76 (x25 x141 x102)) (x157 (x25 x102 x141)) (x87 (x25 x36 x141)) (x7 (x25 x133 x99)) (x44 (x25 x99 x133)) (x145 (x25 x99 x99)) (x11 (x25 x102 x133)) (x148 (x25 x99 x141)) (x34 (x25 x102 x102)) (x52 (x25 x36 x99)) (x3 (x25 x102 x99)) (x64 (x25 x141 x36)) (x142 (x25 x102 x36)) (x39 (x25 x36 x36)) (x84 (x25 x141 x141)) (x111 (x25 x133 x102)) (x14 (x25 x99 x36)) (x92 (x25 x36 x133)) (x97 (x25 x133 x133)) (x38 (x25 x36 x102)) (x158 (x25 x133 x141)) (x72 (x25 x141 x133)) (x63 (x25 x141 x99)) (x123 (x25 x99 x102))) (or (or (and (not (= (x25 x63 x63) x99)) (and (and (not (= (x25 x72 x72) x133)) (and (not (= x102 (x25 x76 x76))) (not (= x36 (x25 x64 x64))))) (not (= x141 (x25 x84 x84))))) (or (or (and (and (not (= (x25 x157 x157) x141)) (and (and (not (= x36 (x25 x142 x142))) (not (= x102 (x25 x34 x34)))) (not (= (x25 x11 x11) x133)))) (not (= x99 (x25 x3 x3)))) (and (not (= (x25 x52 x52) x99)) (and (not (= (x25 x87 x87) x141)) (and (and (not (= x36 (x25 x39 x39))) (not (= (x25 x38 x38) x102))) (not (= x133 (x25 x92 x92))))))) (and (not (= (x25 x7 x7) x99)) (and (not (= (x25 x158 x158) x141)) (and (and (not (= x36 (x25 x10 x10))) (not (= x102 (x25 x111 x111)))) (not (= x133 (x25 x97 x97)))))))) (and (not (= (x25 x145 x145) x99)) (and (and (and (not (= x36 (x25 x14 x14))) (not (= (x25 x123 x123) x102))) (not (= (x25 x44 x44) x133))) (not (= x141 (x25 x148 x148))))))))
(assert (let ((x157 (= x141 (x25 x141 x141))) (x34 (= (x25 x102 x102) x102)) (x3 (= (x25 x99 x99) x99)) (x142 (= x36 (x25 x36 x36))) (x11 (= x133 (x25 x133 x133)))) (and (and (or (not x3) x3) (and (or (not (= (x25 x99 x141) x99)) x157) (and (or x11 (not (= (x25 x99 x133) x99))) (and (or x34 (not (= x99 (x25 x99 x102)))) (or (not (= x99 (x25 x99 x36))) x142))))) (and (and (and (or x3 (not (= x133 (x25 x133 x99)))) (and (and (or (not x11) x11) (and (or x142 (not (= x133 (x25 x133 x36)))) (or (not (= x133 (x25 x133 x102))) x34))) (or (not (= x133 (x25 x133 x141))) x157))) (and (and (or x3 (not (= (x25 x36 x99) x36))) (and (and (and (or x142 (not x142)) (or x34 (not (= x36 (x25 x36 x102))))) (or x11 (not (= (x25 x36 x133) x36)))) (or (not (= (x25 x36 x141) x36)) x157))) (and (and (or (not (= x102 (x25 x102 x141))) x157) (and (or (not (= x102 (x25 x102 x133))) x11) (and (or x34 (not x34)) (or (not (= (x25 x102 x36) x102)) x142)))) (or x3 (not (= x102 (x25 x102 x99))))))) (and (and (and (or (not (= (x25 x141 x133) x141)) x11) (and (or x34 (not (= (x25 x141 x102) x141))) (or x142 (not (= (x25 x141 x36) x141))))) (or x157 (not x157))) (or (not (= x141 (x25 x141 x99))) x3))))))
(assert (not (and (and (= (x25 x99 x141) x36) (and (and (and (and (= (x25 x141 x99) x36) (and (= (x25 x141 x141) x99) (and (= x102 (x25 x141 x133)) (and (= (x25 x141 x36) x133) (and (and (= (x25 x133 x99) x141) (and (= (x25 x133 x141) x102) (and (= (x25 x133 x133) x133) (and (= (x25 x133 x36) x99) (and (= x36 (x25 x133 x102)) (and (= x133 (x25 x36 x99)) (and (= (x25 x36 x141) x141) (and (and (= (x25 x36 x36) x102) (and (= x99 (x25 x36 x102)) (and (and (= x133 (x25 x102 x141)) (and (= x141 (x25 x102 x133)) (and (= (x25 x102 x102) x102) (= x36 (x25 x102 x36))))) (= (x25 x102 x99) x99)))) (= x36 (x25 x36 x133)))))))))) (= (x25 x141 x102) x141)))))) (= (x25 x99 x102) x133)) (= x141 (x25 x99 x36))) (= (x25 x99 x133) x99))) (= x102 (x25 x99 x99)))))
(assert (or (and (not (= x99 (x25 x99 (x25 x99 x99)))) (and (and (not (= (x25 x133 (x25 x99 x133)) x99)) (and (not (= x99 (x25 x36 (x25 x99 x36)))) (not (= x99 (x25 x102 (x25 x99 x102)))))) (not (= (x25 x141 (x25 x99 x141)) x99)))) (or (or (or (and (and (not (= x36 (x25 x141 (x25 x36 x141)))) (and (not (= (x25 x133 (x25 x36 x133)) x36)) (and (not (= (x25 x36 (x25 x36 x36)) x36)) (not (= x36 (x25 x102 (x25 x36 x102))))))) (not (= x36 (x25 x99 (x25 x36 x99))))) (and (not (= (x25 x99 (x25 x102 x99)) x102)) (and (and (and (not (= (x25 x102 (x25 x102 x102)) x102)) (not (= (x25 x36 (x25 x102 x36)) x102))) (not (= (x25 x133 (x25 x102 x133)) x102))) (not (= x102 (x25 x141 (x25 x102 x141))))))) (and (and (and (not (= (x25 x133 (x25 x133 x133)) x133)) (and (not (= x133 (x25 x36 (x25 x133 x36)))) (not (= x133 (x25 x102 (x25 x133 x102)))))) (not (= (x25 x141 (x25 x133 x141)) x133))) (not (= (x25 x99 (x25 x133 x99)) x133)))) (and (not (= (x25 x99 (x25 x141 x99)) x141)) (and (and (and (not (= (x25 x102 (x25 x141 x102)) x141)) (not (= (x25 x36 (x25 x141 x36)) x141))) (not (= x141 (x25 x133 (x25 x141 x133))))) (not (= (x25 x141 (x25 x141 x141)) x141)))))))
(assert (and (and (and (or (= x133 (x25 (x25 x99 x133) x99)) (or (= x133 (x25 (x25 x141 x133) x141)) (or (= x133 (x25 (x25 x133 x133) x133)) (or (= (x25 (x25 x102 x133) x102) x133) (= (x25 (x25 x36 x133) x36) x133))))) (and (or (or (= x102 (x25 (x25 x141 x102) x141)) (or (= x102 (x25 (x25 x133 x102) x133)) (or (= (x25 (x25 x36 x102) x36) x102) (= x102 (x25 (x25 x102 x102) x102))))) (= x102 (x25 (x25 x99 x102) x99))) (or (or (or (or (= x36 (x25 (x25 x36 x36) x36)) (= (x25 (x25 x102 x36) x102) x36)) (= x36 (x25 (x25 x133 x36) x133))) (= (x25 (x25 x141 x36) x141) x36)) (= x36 (x25 (x25 x99 x36) x99))))) (or (or (= (x25 (x25 x141 x141) x141) x141) (or (or (= x141 (x25 (x25 x36 x141) x36)) (= x141 (x25 (x25 x102 x141) x102))) (= x141 (x25 (x25 x133 x141) x133)))) (= (x25 (x25 x99 x141) x99) x141))) (or (= (x25 (x25 x99 x99) x99) x99) (or (or (= x99 (x25 (x25 x133 x99) x133)) (or (= (x25 (x25 x102 x99) x102) x99) (= x99 (x25 (x25 x36 x99) x36)))) (= x99 (x25 (x25 x141 x99) x141))))))
(assert (or (or (or (or (not (= (x25 (x25 x36 x36) x36) x36)) (not (= x102 (x25 (x25 x102 x102) x102)))) (not (= (x25 (x25 x133 x133) x133) x133))) (not (= x141 (x25 (x25 x141 x141) x141)))) (not (= (x25 (x25 x99 x99) x99) x99))))
(assert (and (and (and (and (or (or (= (x25 (x25 x141 x102) x102) x141) (or (= (x25 (x25 x133 x102) x102) x133) (or (= x102 (x25 (x25 x102 x102) x102)) (= (x25 (x25 x36 x102) x102) x36)))) (= x99 (x25 (x25 x99 x102) x102))) (or (or (or (= x133 (x25 (x25 x133 x36) x36)) (or (= (x25 (x25 x36 x36) x36) x36) (= x102 (x25 (x25 x102 x36) x36)))) (= (x25 (x25 x141 x36) x36) x141)) (= (x25 (x25 x99 x36) x36) x99))) (or (or (= x141 (x25 (x25 x141 x133) x133)) (or (= (x25 (x25 x133 x133) x133) x133) (or (= x36 (x25 (x25 x36 x133) x133)) (= x102 (x25 (x25 x102 x133) x133))))) (= (x25 (x25 x99 x133) x133) x99))) (or (= (x25 (x25 x99 x141) x141) x99) (or (or (= (x25 (x25 x133 x141) x141) x133) (or (= (x25 (x25 x36 x141) x141) x36) (= x102 (x25 (x25 x102 x141) x141)))) (= x141 (x25 (x25 x141 x141) x141))))) (or (or (or (= (x25 (x25 x133 x99) x99) x133) (or (= x36 (x25 (x25 x36 x99) x99)) (= x102 (x25 (x25 x102 x99) x99)))) (= x141 (x25 (x25 x141 x99) x99))) (= (x25 (x25 x99 x99) x99) x99))))
(assert (let ((x14 (x25 x36 x99)) (x154 (x25 x99 x36)) (x96 (x25 x99 x141)) (x140 (x25 x99 x99)) (x3 (x25 x102 x141)) (x38 (x25 x102 x99)) (x91 (x25 x133 x133)) (x87 (x25 x133 x102)) (x11 (x25 x102 x36)) (x63 (x25 x36 x133)) (x142 (x25 x102 x102)) (x123 (x25 x36 x141)) (x157 (x25 x102 x133)) (x52 (x25 x141 x102)) (x106 (x25 x141 x141)) (x146 (x25 x141 x99)) (x73 (x25 x141 x133)) (x115 (x25 x99 x133)) (x48 (x25 x133 x99)) (x92 (x25 x36 x102)) (x111 (x25 x99 x102)) (x45 (x25 x141 x36)) (x84 (x25 x36 x36)) (x62 (x25 x133 x141)) (x145 (x25 x133 x36))) (let ((x23 (= x141 x84)) (x137 (= x99 x62)) (x80 (= x141 x91)) (x101 (= x99 x11)) (x76 (= x11 x102)) (x12 (= x111 x99)) (x121 (= x14 x133)) (x66 (= x102 x63)) (x122 (= x87 x133)) (x151 (= x45 x102)) (x49 (= x14 x141)) (x13 (= x36 x140)) (x147 (= x102 x146)) (x78 (= x48 x133)) (x117 (= x52 x36)) (x22 (= x141 x63)) (x79 (= x141 x62)) (x139 (= x141 x115)) (x8 (= x99 x106)) (x100 (= x133 x146)) (x104 (= x36 x106)) (x143 (= x36 x91)) (x19 (= x99 x123)) (x71 (= x141 x48)) (x90 (= x63 x36)) (x68 (= x62 x36)) (x9 (= x36 x96)) (x116 (= x36 x14)) (x77 (= x123 x133)) (x148 (= x84 x36)) (x70 (= x3 x102)) (x16 (= x48 x102)) (x155 (= x133 x84)) (x75 (= x123 x141)) (x61 (= x45 x141)) (x2 (= x38 x141)) (x156 (= x145 x99)) (x50 (= x102 x73)) (x17 (= x157 x102)) (x120 (= x36 x115)) (x41 (= x62 x102)) (x127 (= x146 x36)) (x34 (= x102 x142)) (x131 (= x154 x36)) (x31 (= x146 x99)) (x98 (= x38 x36)) (x18 (= x102 x140)) (x118 (= x102 x87)) (x27 (= x141 x145)) (x54 (= x154 x99)) (x108 (= x63 x99)) (x53 (= x36 x48)) (x69 (= x133 x157)) (x88 (= x91 x99)) (x60 (= x133 x73)) (x20 (= x106 x133)) (x138 (= x141 x106)) (x7 (= x92 x102)) (x132 (= x141 x3)) (x109 (= x62 x133)) (x64 (= x84 x102)) (x81 (= x115 x102)) (x21 (= x63 x133)) (x93 (= x111 x36)) (x129 (= x145 x102)) (x144 (= x11 x133)) (x126 (= x102 x106)) (x55 (= x45 x133)) (x10 (= x142 x133)) (x150 (= x14 x99)) (x40 (= x157 x99)) (x119 (= x141 x140)) (x97 (= x141 x142)) (x67 (= x3 x133)) (x6 (= x102 x111)) (x134 (= x52 x141)) (x56 (= x133 x154)) (x15 (= x96 x102)) (x44 (= x36 x11)) (x124 (= x102 x123)) (x153 (= x45 x36)) (x5 (= x141 x73)) (x59 (= x133 x92)) (x95 (= x133 x52)) (x110 (= x154 x141)) (x26 (= x73 x99)) (x158 (= x99 x142)) (x74 (= x102 x154)) (x32 (= x99 x52)) (x51 (= x96 x133)) (x107 (= x99 x48)) (x83 (= x141 x111)) (x35 (= x36 x145)) (x103 (= x133 x38)) (x94 (= x87 x36)) (x112 (= x91 x102)) (x113 (= x38 x99)) (x89 (= x157 x36)) (x37 (= x87 x141)) (x39 (= x36 x142)) (x1 (= x14 x102)) (x47 (= x157 x141)) (x30 (= x99 x92)) (x114 (= x102 x38)) (x135 (= x91 x133)) (x24 (= x99 x45)) (x159 (= x36 x73)) (x28 (= x3 x36)) (x136 (= x96 x141)) (x82 (= x99 x140)) (x43 (= x99 x96)) (x33 (= x140 x133)) (x125 (= x141 x92)) (x42 (= x133 x111)) (x105 (= x133 x115)) (x149 (= x141 x146)) (x72 (= x36 x92)) (x130 (= x145 x133)) (x4 (= x84 x99)) (x128 (= x99 x115)) (x57 (= x87 x99)) (x29 (= x102 x52)) (x65 (= x3 x99)) (x152 (= x123 x36)) (x86 (= x11 x141))) (and (and (and (and (and (and (and (or (or (or x37 (or x125 x97)) x134) x83) (or (or (or x47 (or x86 x97)) x132) x2)) (and (and (or (or x67 (or (or x144 x10) x69)) x103) (or (or x95 (or (or x10 x59) x122)) x42)) (and (and (or x98 (or x28 (or (or x39 x44) x89))) (or (or (or (or x39 x72) x94) x117) x93)) (and (or (or x29 (or x118 (or x7 x34))) x6) (or (or x70 (or (or x76 x34) x17)) x114))))) (and (or (or (or x40 (or x158 x101)) x65) x113) (or (or x32 (or (or x30 x158) x57)) x12))) (and (and (or (or x19 (or x108 (or x4 x30))) x150) (or (or (or (or x101 x4) x156) x24) x54)) (and (and (and (or (or x55 (or (or x155 x144) x130)) x56) (or (or (or (or x155 x59) x21) x77) x121)) (and (and (or (or (or x129 (or x76 x64)) x151) x74) (or (or (or x66 (or x7 x64)) x124) x1)) (and (or x116 (or x152 (or x90 (or x148 x72)))) (or x131 (or (or x35 (or x148 x44)) x153))))) (and (or x49 (or x75 (or (or x125 x23) x22))) (or x110 (or (or (or x23 x86) x27) x61)))))) (and (and (or (or (or x88 (or x108 x40)) x26) x128) (or (or x137 (or (or x156 x57) x88)) x107)) (and (and (and (and (or (or x159 (or (or x89 x90) x143)) x120) (or (or (or x143 (or x94 x35)) x68) x53)) (and (or x81 (or (or (or x17 x66) x112) x50)) (or (or (or (or x129 x118) x112) x41) x16))) (and (or x78 (or (or (or x130 x122) x135) x109)) (or (or x60 (or (or x69 x21) x135)) x105))) (and (or (or (or (or x47 x22) x80) x5) x139) (or (or (or x80 (or x37 x27)) x79) x71))))) (and (and (or (or (or x26 (or x24 x32)) x8) x31) (or x43 (or x8 (or (or x65 x19) x137)))) (and (and (and (or x100 (or x20 (or x60 (or x55 x95)))) (or (or (or x109 (or x67 x77)) x20) x51)) (and (and (or x127 (or x104 (or (or x117 x153) x159))) (or (or x104 (or x68 (or x152 x28))) x9)) (and (or x147 (or x126 (or x50 (or x29 x151)))) (or x15 (or (or x41 (or x70 x124)) x126))))) (and (or (or (or x5 (or x61 x134)) x138) x149) (or x136 (or x138 (or x79 (or x132 x75)))))))) (and (and (or x82 (or (or (or x150 x113) x107) x31)) (or x82 (or x43 (or (or x12 x54) x128)))) (and (and (or (or (or (or x83 x110) x139) x136) x119) (or x119 (or x149 (or (or x2 x49) x71)))) (and (and (or x33 (or (or (or x121 x103) x78) x100)) (or (or (or (or x56 x42) x105) x51) x33)) (and (and (or x18 (or (or (or x114 x1) x16) x147)) (or x18 (or (or x81 (or x74 x6)) x15))) (and (or (or (or (or x116 x98) x53) x127) x13) (or (or x9 (or x120 (or x93 x131))) x13))))))))))
(assert (and (= x141 (x25 x102 x133)) (and (= x133 (x25 x99 x102)) (and (= (x25 x99 x141) x36) (= (x25 x99 x99) x102)))))
(assert (let ((x97 (x25 x133 x133)) (x142 (x25 x36 x102)) (x44 (x25 x133 x99)) (x34 (x25 x102 x102)) (x63 (x25 x99 x141)) (x148 (x25 x141 x99)) (x145 (x25 x99 x99)) (x3 (x25 x99 x102)) (x87 (x25 x141 x36)) (x10 (x25 x36 x133)) (x158 (x25 x141 x133)) (x52 (x25 x99 x36)) (x39 (x25 x36 x36)) (x14 (x25 x36 x99)) (x92 (x25 x133 x36)) (x38 (x25 x102 x36)) (x84 (x25 x141 x141)) (x76 (x25 x102 x141)) (x123 (x25 x102 x99)) (x64 (x25 x36 x141)) (x11 (x25 x133 x102)) (x111 (x25 x102 x133)) (x157 (x25 x141 x102)) (x72 (x25 x133 x141)) (x7 (x25 x99 x133))) (and (and (and (and (not (= x148 x84)) (and (and (not (= x158 x84)) (and (and (not (= x87 x84)) (and (and (and (and (not (= x87 x157)) (not (= x158 x157))) (not (= x84 x157))) (not (= x148 x157))) (not (= x87 x158)))) (not (= x148 x87)))) (not (= x158 x148)))) (and (and (not (= x44 x72)) (and (not (= x97 x44)) (and (not (= x97 x72)) (and (and (and (not (= x97 x92)) (and (and (and (not (= x11 x92)) (not (= x97 x11))) (not (= x11 x72))) (not (= x44 x11)))) (not (= x72 x92))) (not (= x44 x92)))))) (and (and (not (= x123 x76)) (and (not (= x111 x123)) (and (and (and (not (= x38 x76)) (and (and (and (and (not (= x34 x111)) (not (= x34 x38))) (not (= x34 x76))) (not (= x123 x34))) (not (= x111 x38)))) (not (= x123 x38))) (not (= x76 x111))))) (and (and (not (= x14 x10)) (and (not (= x64 x10)) (and (not (= x39 x14)) (and (and (and (and (and (not (= x10 x142)) (not (= x39 x142))) (not (= x142 x64))) (not (= x142 x14))) (not (= x39 x10))) (not (= x39 x64)))))) (not (= x64 x14)))))) (and (not (= x63 x145)) (and (and (not (= x7 x63)) (and (and (and (not (= x7 x52)) (and (and (and (not (= x3 x52)) (not (= x7 x3))) (not (= x63 x3))) (not (= x3 x145)))) (not (= x63 x52))) (not (= x145 x52)))) (not (= x7 x145))))) (and (and (and (and (not (= x72 x63)) (and (and (and (not (= x64 x84)) (and (and (not (= x76 x63)) (and (not (= x76 x84)) (and (not (= x72 x76)) (not (= x64 x76))))) (not (= x64 x72)))) (not (= x64 x63))) (not (= x84 x72)))) (not (= x84 x63))) (and (and (and (not (= x3 x157)) (and (not (= x3 x11)) (and (and (not (= x3 x142)) (and (and (and (and (and (not (= x11 x34)) (not (= x142 x34))) (not (= x157 x34))) (not (= x34 x3))) (not (= x142 x11))) (not (= x157 x142)))) (not (= x157 x11))))) (and (and (not (= x52 x92)) (and (and (not (= x52 x39)) (and (and (and (not (= x52 x38)) (and (not (= x87 x38)) (and (not (= x39 x38)) (not (= x92 x38))))) (not (= x92 x39))) (not (= x39 x87)))) (not (= x92 x87)))) (not (= x87 x52)))) (and (not (= x158 x7)) (and (not (= x97 x7)) (and (not (= x97 x158)) (and (and (and (and (not (= x7 x111)) (and (not (= x158 x111)) (and (not (= x97 x111)) (not (= x111 x10))))) (not (= x97 x10))) (not (= x10 x158))) (not (= x10 x7)))))))) (and (not (= x145 x148)) (and (and (not (= x44 x148)) (and (not (= x14 x145)) (and (and (not (= x14 x44)) (and (not (= x145 x123)) (and (and (not (= x14 x123)) (not (= x123 x44))) (not (= x148 x123))))) (not (= x14 x148))))) (not (= x145 x44))))))))
(assert (let ((x129 (x25 x36 x36)) (x35 (x25 x141 x36)) (x130 (x25 x141 x133)) (x59 (x25 x102 x36)) (x45 (x25 x102 x102)) (x108 (x25 x99 x141)) (x125 (x25 x133 x102)) (x94 (x25 x36 x141)) (x122 (x25 x133 x141)) (x101 (x25 x99 x102)) (x69 (x25 x133 x99)) (x91 (x25 x36 x99)) (x21 (x25 x99 x133)) (x73 (x25 x133 x133)) (x117 (x25 x99 x99)) (x40 (x25 x141 x99)) (x155 (x25 x102 x133)) (x66 (x25 x36 x133)) (x57 (x25 x141 x141)) (x112 (x25 x133 x36)) (x86 (x25 x102 x141)) (x144 (x25 x36 x102)) (x62 (x25 x99 x36)) (x30 (x25 x102 x99)) (x23 (x25 x141 x102))) (let ((x3 (not (= x102 x125))) (x97 (not (= x102 x94))) (x12 (not (= x101 x99))) (x143 (not (= x36 x66))) (x4 (not (= x144 x36))) (x79 (not (= x133 x21))) (x142 (not (= x144 x102))) (x44 (not (= x102 x108))) (x158 (not (= x130 x102))) (x16 (not (= x86 x141))) (x17 (not (= x129 x36))) (x26 (not (= x133 x117))) (x53 (not (= x21 x141))) (x29 (not (= x36 x30))) (x123 (not (= x21 x102))) (x80 (not (= x122 x36))) (x135 (not (= x36 x23))) (x14 (not (= x69 x102))) (x96 (not (= x66 x133))) (x154 (not (= x36 x45))) (x5 (not (= x133 x30))) (x109 (not (= x133 x130))) (x74 (not (= x155 x141))) (x8 (not (= x129 x141))) (x107 (not (= x108 x99))) (x10 (not (= x35 x102))) (x156 (not (= x36 x57))) (x152 (not (= x125 x133))) (x95 (not (= x73 x133))) (x93 (not (= x130 x141))) (x105 (not (= x45 x99))) (x92 (not (= x66 x102))) (x34 (not (= x45 x102))) (x64 (not (= x102 x101))) (x67 (not (= x35 x133))) (x75 (not (= x133 x91))) (x138 (not (= x133 x69))) (x22 (not (= x36 x130))) (x159 (not (= x45 x133))) (x121 (not (= x129 x99))) (x106 (not (= x144 x133))) (x65 (not (= x45 x141))) (x111 (not (= x102 x86))) (x60 (not (= x86 x133))) (x98 (not (= x141 x62))) (x139 (not (= x23 x99))) (x87 (not (= x73 x102))) (x116 (not (= x141 x91))) (x151 (not (= x62 x36))) (x153 (not (= x117 x36))) (x146 (not (= x133 x59))) (x42 (not (= x40 x141))) (x54 (not (= x30 x99))) (x15 (not (= x66 x141))) (x145 (not (= x102 x117))) (x24 (not (= x40 x133))) (x100 (not (= x155 x99))) (x134 (not (= x133 x57))) (x27 (not (= x35 x36))) (x104 (not (= x133 x112))) (x88 (not (= x36 x101))) (x47 (not (= x36 x94))) (x81 (not (= x141 x112))) (x51 (not (= x99 x144))) (x61 (not (= x133 x101))) (x90 (not (= x112 x36))) (x84 (not (= x102 x62))) (x136 (not (= x86 x99))) (x76 (not (= x102 x57))) (x28 (not (= x133 x129))) (x43 (not (= x99 x91))) (x114 (not (= x141 x73))) (x83 (not (= x99 x66))) (x33 (not (= x112 x99))) (x2 (not (= x35 x99))) (x82 (not (= x99 x117))) (x103 (not (= x99 x59))) (x56 (not (= x141 x117))) (x38 (not (= x155 x102))) (x13 (not (= x141 x108))) (x1 (not (= x23 x141))) (x131 (not (= x141 x122))) (x128 (not (= x62 x99))) (x32 (not (= x108 x133))) (x78 (not (= x99 x125))) (x9 (not (= x101 x141))) (x124 (not (= x36 x69))) (x18 (not (= x94 x141))) (x150 (not (= x69 x99))) (x115 (not (= x36 x73))) (x137 (not (= x141 x59))) (x50 (not (= x36 x91))) (x72 (not (= x102 x30))) (x68 (not (= x155 x133))) (x132 (not (= x133 x62))) (x89 (not (= x155 x36))) (x37 (not (= x86 x36))) (x120 (not (= x57 x141))) (x113 (not (= x99 x21))) (x7 (not (= x122 x102))) (x41 (not (= x108 x36))) (x20 (not (= x133 x122))) (x48 (not (= x125 x36))) (x55 (not (= x133 x23))) (x71 (not (= x130 x99))) (x140 (not (= x30 x141))) (x52 (not (= x102 x23))) (x148 (not (= x102 x40))) (x147 (not (= x141 x35))) (x110 (not (= x99 x73))) (x70 (not (= x36 x21))) (x49 (not (= x94 x99))) (x63 (not (= x102 x91))) (x118 (not (= x36 x59))) (x77 (not (= x94 x133))) (x11 (not (= x102 x59))) (x127 (not (= x69 x141))) (x126 (not (= x36 x40))) (x39 (not (= x102 x112))) (x157 (not (= x102 x129))) (x119 (not (= x99 x57))) (x31 (not (= x40 x99))) (x6 (not (= x141 x125))) (x149 (not (= x122 x99))) (x19 (not (= x141 x144)))) (or (and (and (and (or x107 x31) (and (or x113 x150) (and (or x12 x54) (or x43 x128)))) (or x82 x82)) (and (and (and (and (or x149 x71) (and (and (or x78 x100) (or x33 x83)) (or x110 x110))) (or x113 x150)) (and (and (or x12 x54) (and (and (and (or x105 x105) (or x103 x51)) (or x78 x100)) (or x139 x136))) (and (or x43 x128) (and (or x49 x2) (and (and (or x51 x103) (or x121 x121)) (or x83 x33)))))) (and (or x107 x31) (and (or x119 x119) (and (and (or x49 x2) (or x136 x139)) (or x71 x149)))))) (or (or (or (and (and (and (or x148 x44) (and (and (or x158 x7) (and (or x10 x97) (or x111 x52))) (or x76 x76))) (and (and (and (or x72 x64) (and (and (and (or x34 x34) (or x142 x11)) (or x3 x38)) (or x52 x111))) (and (and (and (or x39 x92) (and (or x157 x157) (or x11 x142))) (or x97 x10)) (or x84 x63))) (and (and (or x158 x7) (and (and (or x39 x92) (or x3 x38)) (or x87 x87))) (or x14 x123)))) (and (or x145 x145) (and (and (or x14 x123) (and (or x64 x72) (or x84 x63))) (or x148 x44)))) (and (and (and (and (and (and (or x135 x37) (and (and (or x154 x154) (or x4 x118)) (or x89 x48))) (or x29 x88)) (and (and (and (and (or x17 x17) (or x118 x4)) (or x90 x143)) (or x47 x27)) (or x151 x50))) (and (or x70 x124) (and (and (or x115 x115) (and (or x48 x89) (or x90 x143))) (or x22 x80)))) (and (or x126 x41) (and (and (or x22 x80) (and (or x47 x27) (or x135 x37))) (or x156 x156)))) (and (or x153 x153) (and (and (or x70 x124) (and (or x151 x50) (or x88 x29))) (or x126 x41))))) (and (and (and (or x32 x24) (and (or x138 x79) (and (or x5 x61) (or x132 x75)))) (or x26 x26)) (and (and (and (or x138 x79) (and (and (and (or x96 x104) (or x152 x68)) (or x95 x95)) (or x20 x109))) (and (and (or x61 x5) (and (and (or x68 x152) (and (or x106 x146) (or x159 x159))) (or x60 x55))) (and (or x75 x132) (and (or x77 x67) (and (and (or x28 x28) (or x106 x146)) (or x96 x104)))))) (and (or x32 x24) (and (and (and (or x60 x55) (or x77 x67)) (or x109 x20)) (or x134 x134)))))) (and (and (and (or x13 x42) (and (or x120 x120) (and (or x131 x93) (and (or x18 x147) (or x16 x1))))) (and (and (and (and (or x147 x18) (and (and (or x19 x137) (or x8 x8)) (or x15 x81))) (or x116 x98)) (and (and (or x1 x16) (and (and (or x137 x19) (or x65 x65)) (or x6 x74))) (or x9 x140))) (and (or x53 x127) (and (or x93 x131) (and (or x114 x114) (and (or x74 x6) (or x81 x15))))))) (and (and (and (or x127 x53) (and (or x116 x98) (or x140 x9))) (or x42 x13)) (or x56 x56))))))))
(assert (or (and (and (and (and (not (= x36 (x25 x99 (x25 x99 x36)))) (not (= x102 (x25 x99 (x25 x99 x102))))) (not (= (x25 x99 (x25 x99 x133)) x133))) (not (= (x25 x99 (x25 x99 x141)) x141))) (not (= x99 (x25 x99 (x25 x99 x99))))) (or (and (not (= (x25 x141 (x25 x141 x99)) x99)) (and (and (not (= x133 (x25 x141 (x25 x141 x133)))) (and (not (= (x25 x141 (x25 x141 x102)) x102)) (not (= (x25 x141 (x25 x141 x36)) x36)))) (not (= (x25 x141 (x25 x141 x141)) x141)))) (or (and (and (and (and (not (= x36 (x25 x133 (x25 x133 x36)))) (not (= (x25 x133 (x25 x133 x102)) x102))) (not (= x133 (x25 x133 (x25 x133 x133))))) (not (= (x25 x133 (x25 x133 x141)) x141))) (not (= x99 (x25 x133 (x25 x133 x99))))) (or (and (and (and (and (not (= x102 (x25 x36 (x25 x36 x102)))) (not (= (x25 x36 (x25 x36 x36)) x36))) (not (= (x25 x36 (x25 x36 x133)) x133))) (not (= x141 (x25 x36 (x25 x36 x141))))) (not (= x99 (x25 x36 (x25 x36 x99))))) (and (and (not (= (x25 x102 (x25 x102 x141)) x141)) (and (and (not (= (x25 x102 (x25 x102 x102)) x102)) (not (= x36 (x25 x102 (x25 x102 x36))))) (not (= x133 (x25 x102 (x25 x102 x133)))))) (not (= (x25 x102 (x25 x102 x99)) x99))))))))
(assert (let ((x144 (x25 x36 x102)) (x23 (x25 x141 x102)) (x35 (x25 x141 x36)) (x62 (x25 x99 x36)) (x122 (x25 x133 x141)) (x45 (x25 x102 x102)) (x130 (x25 x141 x133)) (x57 (x25 x141 x141)) (x101 (x25 x99 x102)) (x94 (x25 x36 x141)) (x40 (x25 x141 x99)) (x129 (x25 x36 x36)) (x69 (x25 x133 x99)) (x30 (x25 x102 x99)) (x125 (x25 x133 x102)) (x117 (x25 x99 x99)) (x21 (x25 x99 x133)) (x59 (x25 x102 x36)) (x86 (x25 x102 x141)) (x73 (x25 x133 x133)) (x66 (x25 x36 x133)) (x108 (x25 x99 x141)) (x91 (x25 x36 x99)) (x155 (x25 x102 x133)) (x112 (x25 x133 x36))) (let ((x105 (= x99 x45)) (x42 (= x40 x141)) (x103 (= x99 x59)) (x43 (= x99 x91)) (x97 (= x102 x94)) (x156 (= x36 x57)) (x53 (= x21 x141)) (x118 (= x59 x36)) (x47 (= x36 x94)) (x138 (= x69 x133)) (x143 (= x36 x66)) (x72 (= x102 x30)) (x88 (= x36 x101)) (x119 (= x57 x99)) (x128 (= x62 x99)) (x151 (= x62 x36)) (x115 (= x73 x36)) (x12 (= x99 x101)) (x137 (= x59 x141)) (x78 (= x99 x125)) (x127 (= x69 x141)) (x121 (= x129 x99)) (x39 (= x102 x112)) (x145 (= x102 x117)) (x140 (= x141 x30)) (x83 (= x99 x66)) (x63 (= x91 x102)) (x61 (= x101 x133)) (x134 (= x133 x57)) (x55 (= x23 x133)) (x126 (= x40 x36)) (x95 (= x73 x133)) (x49 (= x99 x94)) (x113 (= x21 x99)) (x82 (= x99 x117)) (x27 (= x36 x35)) (x38 (= x102 x155)) (x109 (= x130 x133)) (x104 (= x112 x133)) (x48 (= x36 x125)) (x8 (= x141 x129)) (x87 (= x102 x73)) (x20 (= x133 x122)) (x90 (= x36 x112)) (x75 (= x91 x133)) (x124 (= x36 x69)) (x65 (= x141 x45)) (x51 (= x99 x144)) (x92 (= x102 x66)) (x150 (= x69 x99)) (x146 (= x59 x133)) (x70 (= x36 x21)) (x1 (= x141 x23)) (x33 (= x99 x112)) (x153 (= x36 x117)) (x74 (= x155 x141)) (x13 (= x108 x141)) (x3 (= x125 x102)) (x19 (= x141 x144)) (x7 (= x102 x122)) (x77 (= x94 x133)) (x98 (= x62 x141)) (x54 (= x30 x99)) (x84 (= x62 x102)) (x136 (= x86 x99)) (x44 (= x108 x102)) (x100 (= x155 x99)) (x89 (= x155 x36)) (x157 (= x102 x129)) (x26 (= x133 x117)) (x139 (= x23 x99)) (x2 (= x99 x35)) (x76 (= x57 x102)) (x60 (= x133 x86)) (x64 (= x102 x101)) (x6 (= x125 x141)) (x52 (= x23 x102)) (x41 (= x108 x36)) (x5 (= x133 x30)) (x154 (= x45 x36)) (x31 (= x40 x99)) (x68 (= x155 x133)) (x10 (= x102 x35)) (x24 (= x133 x40)) (x110 (= x73 x99)) (x152 (= x125 x133)) (x158 (= x130 x102)) (x96 (= x133 x66)) (x132 (= x133 x62)) (x15 (= x141 x66)) (x29 (= x36 x30)) (x131 (= x141 x122)) (x81 (= x141 x112)) (x93 (= x130 x141)) (x147 (= x35 x141)) (x149 (= x122 x99)) (x22 (= x130 x36)) (x71 (= x99 x130)) (x135 (= x36 x23)) (x16 (= x141 x86)) (x37 (= x86 x36)) (x11 (= x59 x102)) (x148 (= x40 x102)) (x17 (= x129 x36)) (x50 (= x91 x36)) (x9 (= x141 x101)) (x120 (= x57 x141)) (x123 (= x102 x21)) (x107 (= x108 x99)) (x18 (= x94 x141)) (x80 (= x122 x36)) (x34 (= x102 x45)) (x142 (= x144 x102)) (x14 (= x102 x69)) (x4 (= x144 x36)) (x114 (= x141 x73)) (x28 (= x133 x129)) (x32 (= x133 x108)) (x79 (= x21 x133)) (x116 (= x91 x141)) (x56 (= x141 x117)) (x159 (= x133 x45)) (x111 (= x86 x102)) (x106 (= x144 x133)) (x67 (= x35 x133))) (or (or (and (and (or (not x56) x56) (and (or (not x13) x42) (and (and (or (not x98) x116) (or (not x9) x140)) (or x127 (not x53))))) (and (and (and (or (not x127) x53) (and (and (or (not x114) x114) (and (or x15 (not x81)) (or x74 (not x6)))) (or x93 (not x131)))) (and (and (and (and (and (or x19 (not x137)) (or (not x65) x65)) (or x6 (not x74))) (or (not x16) x1)) (or x9 (not x140))) (and (and (and (and (or (not x8) x8) (or x137 (not x19))) (or x81 (not x15))) (or x147 (not x18))) (or x98 (not x116))))) (and (and (or (not x120) x120) (and (and (or (not x1) x16) (or (not x147) x18)) (or (not x93) x131))) (or x13 (not x42))))) (or (and (and (and (and (or (not x134) x134) (and (and (or (not x55) x60) (or x77 (not x67))) (or x20 (not x109)))) (or x32 (not x24))) (and (and (and (and (or (not x95) x95) (and (or x96 (not x104)) (or (not x152) x68))) (or x109 (not x20))) (or (not x138) x79)) (and (and (or (not x5) x61) (and (and (and (or (not x159) x159) (or x106 (not x146))) (or (not x68) x152)) (or (not x60) x55))) (and (and (or x67 (not x77)) (and (or x104 (not x96)) (and (or x28 (not x28)) (or x146 (not x106))))) (or x132 (not x75)))))) (and (and (and (and (or x75 (not x132)) (or (not x61) x5)) (or x138 (not x79))) (or (not x32) x24)) (or x26 (not x26)))) (or (and (and (and (and (and (or (not x63) x84) (and (or x10 (not x97)) (and (and (or (not x142) x11) (or (not x157) x157)) (or (not x92) x39)))) (and (and (and (or x3 (not x38)) (and (or (not x11) x142) (or (not x34) x34))) (or (not x111) x52)) (or x64 (not x72)))) (and (and (or x158 (not x7)) (and (or (not x87) x87) (and (or (not x3) x38) (or (not x39) x92)))) (or (not x14) x123))) (and (or (not x148) x44) (and (and (or x7 (not x158)) (and (or (not x52) x111) (or (not x10) x97))) (or (not x76) x76)))) (and (or x145 (not x145)) (and (and (or (not x123) x14) (and (or x63 (not x84)) (or (not x64) x72))) (or (not x44) x148)))) (and (and (and (or x126 (not x41)) (and (and (or x29 (not x88)) (or x50 (not x151))) (or x124 (not x70)))) (or (not x153) x153)) (and (and (or x41 (not x126)) (and (or (not x156) x156) (and (or (not x22) x80) (and (or (not x135) x37) (or (not x27) x47))))) (and (and (and (and (or x115 (not x115)) (and (or (not x48) x89) (or (not x90) x143))) (or x22 (not x80))) (or x70 (not x124))) (and (and (and (and (or x48 (not x89)) (and (or (not x154) x154) (or x4 (not x118)))) (or x135 (not x37))) (or x88 (not x29))) (and (and (and (or (not x143) x90) (and (or x118 (not x4)) (or x17 (not x17)))) (or x27 (not x47))) (or (not x50) x151))))))))) (and (and (or (not x82) x82) (and (and (or x150 (not x113)) (and (or x54 (not x12)) (or (not x128) x43))) (or x31 (not x107)))) (and (and (and (and (and (and (or (not x83) x33) (and (or (not x121) x121) (or (not x51) x103))) (or (not x49) x2)) (or (not x43) x128)) (and (or x12 (not x54)) (and (and (or x78 (not x100)) (and (or x105 (not x105)) (or (not x103) x51))) (or (not x136) x139)))) (and (and (and (and (or (not x78) x100) (or x83 (not x33))) (or (not x110) x110)) (or (not x149) x71)) (or (not x150) x113))) (and (or (not x31) x107) (and (or (not x119) x119) (and (and (or x136 (not x139)) (or x49 (not x2))) (or x149 (not x71)))))))))))
(assert (let ((x10 (x25 x133 x36)) (x72 (x25 x141 x133)) (x92 (x25 x36 x133)) (x64 (x25 x141 x36)) (x63 (x25 x141 x99)) (x3 (x25 x102 x99)) (x52 (x25 x36 x99)) (x97 (x25 x133 x133)) (x123 (x25 x99 x102)) (x111 (x25 x133 x102)) (x157 (x25 x102 x141)) (x158 (x25 x133 x141)) (x84 (x25 x141 x141)) (x14 (x25 x99 x36)) (x76 (x25 x141 x102)) (x148 (x25 x99 x141)) (x7 (x25 x133 x99)) (x34 (x25 x102 x102)) (x38 (x25 x36 x102)) (x87 (x25 x36 x141)) (x44 (x25 x99 x133)) (x11 (x25 x102 x133)) (x39 (x25 x36 x36)) (x142 (x25 x102 x36)) (x145 (x25 x99 x99))) (and (and (and (and (and (and (and (and (or (or (or (= x34 x133) (or (= x34 x36) (= x34 x102))) (= x141 x34)) (= x34 x99)) (or (= x142 x99) (or (= x141 x142) (or (= x142 x133) (or (= x142 x102) (= x36 x142)))))) (or (or (or (= x11 x133) (or (= x11 x36) (= x102 x11))) (= x141 x11)) (= x99 x11))) (or (or (or (= x133 x157) (or (= x157 x102) (= x157 x36))) (= x157 x141)) (= x157 x99))) (or (= x3 x99) (or (or (= x133 x3) (or (= x36 x3) (= x102 x3))) (= x3 x141)))) (and (or (= x52 x99) (or (= x141 x52) (or (or (= x52 x36) (= x52 x102)) (= x133 x52)))) (and (and (or (or (= x141 x92) (or (= x133 x92) (or (= x92 x36) (= x102 x92)))) (= x99 x92)) (and (or (= x99 x39) (or (= x141 x39) (or (= x133 x39) (or (= x39 x102) (= x39 x36))))) (or (= x38 x99) (or (= x38 x141) (or (= x38 x133) (or (= x38 x102) (= x36 x38))))))) (or (or (= x141 x87) (or (= x133 x87) (or (= x36 x87) (= x102 x87)))) (= x87 x99))))) (and (or (or (or (= x133 x7) (or (= x102 x7) (= x7 x36))) (= x7 x141)) (= x99 x7)) (and (or (= x158 x99) (or (= x141 x158) (or (= x158 x133) (or (= x36 x158) (= x102 x158))))) (and (or (or (= x141 x97) (or (or (= x97 x36) (= x102 x97)) (= x97 x133))) (= x97 x99)) (and (or (or (or (or (= x10 x36) (= x10 x102)) (= x133 x10)) (= x10 x141)) (= x99 x10)) (or (= x99 x111) (or (or (= x111 x133) (or (= x36 x111) (= x111 x102))) (= x141 x111)))))))) (and (and (and (and (or (or (= x141 x64) (or (= x133 x64) (or (= x64 x102) (= x36 x64)))) (= x64 x99)) (or (or (= x141 x76) (or (= x76 x133) (or (= x76 x102) (= x76 x36)))) (= x99 x76))) (or (= x72 x99) (or (= x72 x141) (or (or (= x72 x36) (= x102 x72)) (= x133 x72))))) (or (= x84 x99) (or (or (or (= x84 x36) (= x84 x102)) (= x133 x84)) (= x84 x141)))) (or (= x63 x99) (or (or (= x133 x63) (or (= x63 x102) (= x36 x63))) (= x141 x63))))) (and (and (and (or (or (or (= x133 x44) (or (= x36 x44) (= x102 x44))) (= x141 x44)) (= x99 x44)) (and (or (or (= x141 x123) (or (= x123 x133) (or (= x123 x102) (= x123 x36)))) (= x99 x123)) (or (or (= x141 x14) (or (or (= x14 x102) (= x36 x14)) (= x133 x14))) (= x99 x14)))) (or (= x148 x99) (or (= x141 x148) (or (= x148 x133) (or (= x36 x148) (= x102 x148)))))) (or (= x145 x99) (or (or (or (= x36 x145) (= x145 x102)) (= x145 x133)) (= x141 x145)))))))
(assert (or (= (x25 x99 x99) x99) (or (= (x25 x141 x141) x141) (or (= (x25 x133 x133) x133) (or (= x36 (x25 x36 x36)) (= (x25 x102 x102) x102))))))
(assert (and (and (and (and (not (= x99 x36)) (and (and (not (= x133 x36)) (and (and (and (not (= x102 x133)) (not (= x102 x36))) (not (= x141 x102))) (not (= x102 x99)))) (not (= x36 x141)))) (not (= x133 x141))) (not (= x133 x99))) (not (= x141 x99))))
(assert (let ((x157 (x25 x141 x141)) (x3 (x25 x99 x99)) (x11 (x25 x133 x133)) (x142 (x25 x36 x36)) (x34 (x25 x102 x102))) (or (and (not (= x99 x3)) (and (not (= x157 x99)) (and (and (not (= x34 x99)) (not (= x99 x142))) (not (= x99 x11))))) (or (or (and (not (= x133 x3)) (and (and (and (not (= x133 x34)) (not (= x142 x133))) (not (= x133 x11))) (not (= x133 x157)))) (or (and (not (= x3 x36)) (and (and (not (= x11 x36)) (and (not (= x142 x36)) (not (= x36 x34)))) (not (= x157 x36)))) (and (and (and (not (= x102 x11)) (and (not (= x102 x34)) (not (= x142 x102)))) (not (= x157 x102))) (not (= x102 x3))))) (and (not (= x141 x3)) (and (not (= x157 x141)) (and (not (= x141 x11)) (and (not (= x34 x141)) (not (= x141 x142))))))))))
(check-sat)
(exit)
